196521
15,28,83,8,63,52,39,41,5,44,59,70,80,21,32,58,27,7,74,9,71,82,40,2,23,55,3,43,56,17,30,79,78,69,61,6,4,50,53,68,22,31,19,24,65,37,18,26,54,13,48,11,47,57,12,49,34,60,81,51,72,77,36,62,76,67,14,46,45,73,29,64,10,1,66,20,33,16,38,75,35,25,42,15